BAYES
324
2 2 2 2 2 2 2 2 2 2 2 2 2 2 2 2 2 2 2 2 2 2 2 2 2 2 2 2 2 2 2 2 2 2 2 2 2 2 2 2 2 2 2 2 2 2 2 2 2 2 2 2 2 2 2 2 2 2 2 2 2 2 2 2 2 2 2 2 2 2 2 2 2 2 2 2 2 2 2 2 2 2 2 2 2 2 2 2 2 2 2 2 2 2 2 2 2 2 2 2 2 2 2 2 2 2 2 2 2 2 2 2 2 2 2 2 2 2 2 2 2 2 2 2 2 2 2 2 2 2 2 2 2 2 2 2 2 2 2 2 2 2 2 2 2 2 2 2 2 2 2 2 2 2 2 2 2 2 2 2 2 2 2 2 2 2 2 2 2 2 2 2 2 2 2 2 2 2 2 2 2 2 2 2 2 2 2 2 2 2 2 2 2 2 2 2 2 2 2 2 2 2 2 2 2 2 2 2 2 2 2 2 2 2 2 2 2 2 2 2 2 2 2 2 2 2 2 2 2 2 2 2 2 2 2 2 2 2 2 2 2 2 2 2 2 2 2 2 2 2 2 2 2 2 2 2 2 2 2 2 2 2 2 2 2 2 2 2 2 2 2 2 2 2 2 2 2 2 2 2 2 2 2 2 2 2 2 2 2 2 2 2 2 2 2 2 2 2 2 2 2 2 2 2 2 2 2 2 2 2 2 2 2 2 2 2 2 2 2 2 2 2 2 2
324
3 18 1 0
3 19 2 1
3 20 3 2
3 21 4 3
3 22 5 4
3 23 6 5
3 24 7 6
3 25 8 7
3 26 9 8
3 27 10 9
3 28 11 10
3 29 12 11
3 30 13 12
3 31 14 13
3 32 15 14
3 33 16 15
3 34 17 16
2 35 17
3 36 19 18
3 37 20 19
3 38 21 20
3 39 22 21
3 40 23 22
3 41 24 23
3 42 25 24
3 43 26 25
3 44 27 26
3 45 28 27
3 46 29 28
3 47 30 29
3 48 31 30
3 49 32 31
3 50 33 32
3 51 34 33
3 52 35 34
2 53 35
3 54 37 36
3 55 38 37
3 56 39 38
3 57 40 39
3 58 41 40
3 59 42 41
3 60 43 42
3 61 44 43
3 62 45 44
3 63 46 45
3 64 47 46
3 65 48 47
3 66 49 48
3 67 50 49
3 68 51 50
3 69 52 51
3 70 53 52
2 71 53
3 72 55 54
3 73 56 55
3 74 57 56
3 75 58 57
3 76 59 58
3 77 60 59
3 78 61 60
3 79 62 61
3 80 63 62
3 81 64 63
3 82 65 64
3 83 66 65
3 84 67 66
3 85 68 67
3 86 69 68
3 87 70 69
3 88 71 70
2 89 71
3 90 73 72
3 91 74 73
3 92 75 74
3 93 76 75
3 94 77 76
3 95 78 77
3 96 79 78
3 97 80 79
3 98 81 80
3 99 82 81
3 100 83 82
3 101 84 83
3 102 85 84
3 103 86 85
3 104 87 86
3 105 88 87
3 106 89 88
2 107 89
3 108 91 90
3 109 92 91
3 110 93 92
3 111 94 93
3 112 95 94
3 113 96 95
3 114 97 96
3 115 98 97
3 116 99 98
3 117 100 99
3 118 101 100
3 119 102 101
3 120 103 102
3 121 104 103
3 122 105 104
3 123 106 105
3 124 107 106
2 125 107
3 126 109 108
3 127 110 109
3 128 111 110
3 129 112 111
3 130 113 112
3 131 114 113
3 132 115 114
3 133 116 115
3 134 117 116
3 135 118 117
3 136 119 118
3 137 120 119
3 138 121 120
3 139 122 121
3 140 123 122
3 141 124 123
3 142 125 124
2 143 125
3 144 127 126
3 145 128 127
3 146 129 128
3 147 130 129
3 148 131 130
3 149 132 131
3 150 133 132
3 151 134 133
3 152 135 134
3 153 136 135
3 154 137 136
3 155 138 137
3 156 139 138
3 157 140 139
3 158 141 140
3 159 142 141
3 160 143 142
2 161 143
3 162 145 144
3 163 146 145
3 164 147 146
3 165 148 147
3 166 149 148
3 167 150 149
3 168 151 150
3 169 152 151
3 170 153 152
3 171 154 153
3 172 155 154
3 173 156 155
3 174 157 156
3 175 158 157
3 176 159 158
3 177 160 159
3 178 161 160
2 179 161
3 180 163 162
3 181 164 163
3 182 165 164
3 183 166 165
3 184 167 166
3 185 168 167
3 186 169 168
3 187 170 169
3 188 171 170
3 189 172 171
3 190 173 172
3 191 174 173
3 192 175 174
3 193 176 175
3 194 177 176
3 195 178 177
3 196 179 178
2 197 179
3 198 181 180
3 199 182 181
3 200 183 182
3 201 184 183
3 202 185 184
3 203 186 185
3 204 187 186
3 205 188 187
3 206 189 188
3 207 190 189
3 208 191 190
3 209 192 191
3 210 193 192
3 211 194 193
3 212 195 194
3 213 196 195
3 214 197 196
2 215 197
3 216 199 198
3 217 200 199
3 218 201 200
3 219 202 201
3 220 203 202
3 221 204 203
3 222 205 204
3 223 206 205
3 224 207 206
3 225 208 207
3 226 209 208
3 227 210 209
3 228 211 210
3 229 212 211
3 230 213 212
3 231 214 213
3 232 215 214
2 233 215
3 234 217 216
3 235 218 217
3 236 219 218
3 237 220 219
3 238 221 220
3 239 222 221
3 240 223 222
3 241 224 223
3 242 225 224
3 243 226 225
3 244 227 226
3 245 228 227
3 246 229 228
3 247 230 229
3 248 231 230
3 249 232 231
3 250 233 232
2 251 233
3 252 235 234
3 253 236 235
3 254 237 236
3 255 238 237
3 256 239 238
3 257 240 239
3 258 241 240
3 259 242 241
3 260 243 242
3 261 244 243
3 262 245 244
3 263 246 245
3 264 247 246
3 265 248 247
3 266 249 248
3 267 250 249
3 268 251 250
2 269 251
3 270 253 252
3 271 254 253
3 272 255 254
3 273 256 255
3 274 257 256
3 275 258 257
3 276 259 258
3 277 260 259
3 278 261 260
3 279 262 261
3 280 263 262
3 281 264 263
3 282 265 264
3 283 266 265
3 284 267 266
3 285 268 267
3 286 269 268
2 287 269
3 288 271 270
3 289 272 271
3 290 273 272
3 291 274 273
3 292 275 274
3 293 276 275
3 294 277 276
3 295 278 277
3 296 279 278
3 297 280 279
3 298 281 280
3 299 282 281
3 300 283 282
3 301 284 283
3 302 285 284
3 303 286 285
3 304 287 286
2 305 287
3 306 289 288
3 307 290 289
3 308 291 290
3 309 292 291
3 310 293 292
3 311 294 293
3 312 295 294
3 313 296 295
3 314 297 296
3 315 298 297
3 316 299 298
3 317 300 299
3 318 301 300
3 319 302 301
3 320 303 302
3 321 304 303
3 322 305 304
2 323 305
2 307 306
2 308 307
2 309 308
2 310 309
2 311 310
2 312 311
2 313 312
2 314 313
2 315 314
2 316 315
2 317 316
2 318 317
2 319 318
2 320 319
2 321 320
2 322 321
2 323 322
1  323
8
0 1 1 0 0 1 0 1
8
1 0 1 0 1 0 1 0
8
0 1 1 0 0 1 1 0
8
0 1 0 1 1 0 1 0
8
0.6743962638905073 0.3256037361094927 0.9298561401042632 0.07014385989573683 0.5885037880071512 0.4114962119928489 0.5528267502305825 0.4471732497694175
8
1 0 1 0 0 1 0 1
8
1 0 1 0 0 1 0 1
8
1 0 1 0 0 1 0 1
8
1 0 1 0 1 0 1 0
8
0 1 0 1 1 0 0 1
8
0 1 1 0 0 1 0 1
8
1 0 1 0 1 0 0 1
8
1 0 1 0 0 1 0 1
8
0 1 0 1 1 0 0 1
8
0 1 0 1 0 1 0 1
8
1 0 0 1 1 0 0 1
8
1 0 1 0 1 0 0 1
4
0 1 1 0
8
0 1 0 1 1 0 0 1
8
0 1 0 1 1 0 0 1
8
1 0 0 1 0 1 0 1
8
0 1 1 0 0 1 1 0
8
0.6981143107573023 0.30188568924269765 0.8391597922203112 0.1608402077796888 0.10880950404130307 0.8911904959586969 0.0642593930948307 0.9357406069051692
8
0 1 0 1 0 1 0 1
8
0 1 1 0 0 1 1 0
8
0.5803954888638478 0.4196045111361522 0.336452181913282 0.6635478180867179 0.9206858525279703 0.07931414747202972 0.7538041335993206 0.24619586640067936
8
0 1 1 0 0 1 0 1
8
0.3719121940203734 0.6280878059796265 0.07094570142624036 0.9290542985737597 0.5629047086195169 0.43709529138048303 0.32440763625462443 0.6755923637453757
8
0 1 0 1 0 1 1 0
8
1 0 0 1 0 1 0 1
8
0 1 0 1 0 1 0 1
8
0 1 1 0 0 1 1 0
8
0 1 1 0 0 1 1 0
8
0 1 1 0 1 0 0 1
8
1 0 0 1 1 0 0 1
4
0 1 1 0
8
0 1 1 0 0 1 1 0
8
1 0 1 0 0 1 1 0
8
1 0 1 0 0 1 0 1
8
0 1 0 1 1 0 1 0
8
0.5333803888361724 0.46661961116382755 0.8078707649891411 0.1921292350108589 0.09252336089185863 0.9074766391081414 0.6847759764164657 0.31522402358353424
8
0 1 0 1 0 1 0 1
8
0 1 1 0 1 0 0 1
8
0 1 0 1 1 0 1 0
8
1 0 0 1 0 1 1 0
8
0 1 0 1 1 0 1 0
8
0 1 0 1 0 1 1 0
8
0 1 0 1 1 0 1 0
8
0 1 0 1 0 1 1 0
8
1 0 1 0 0 1 0 1
8
0 1 1 0 0 1 1 0
8
0 1 0 1 1 0 1 0
8
0 1 1 0 0 1 0 1
4
1 0 0 1
8
0 1 0 1 0 1 1 0
8
1 0 1 0 0 1 1 0
8
1 0 0 1 1 0 1 0
8
1 0 1 0 1 0 0 1
8
0.4235337925517176 0.5764662074482825 0.4501730033285312 0.5498269966714687 0.6004548869402191 0.39954511305978085 0.2830117153180072 0.7169882846819928
8
1 0 1 0 1 0 0 1
8
0.725762994065644 0.27423700593435596 0.8739166881862853 0.12608331181371463 0.10410844477304412 0.8958915552269558 0.300366553162126 0.699633446837874
8
1 0 0 1 1 0 0 1
8
1 0 0 1 1 0 1 0
8
0 1 0 1 0 1 1 0
8
0 1 0 1 1 0 0 1
8
0 1 0 1 0 1 0 1
8
0.5776540426469037 0.42234595735309644 0.530467654795157 0.46953234520484305 0.8762620596101829 0.12373794038981717 0.48996698844493364 0.5100330115550664
8
0.9870323281170059 0.012967671882994044 0.4781291673118219 0.5218708326881781 0.6558188878249984 0.3441811121750016 0.5499319193832375 0.4500680806167625
8
1 0 0 1 1 0 1 0
8
1 0 1 0 1 0 1 0
8
1 0 1 0 0 1 1 0
4
1 0 0 1
8
1 0 0 1 0 1 1 0
8
0 1 0 1 1 0 1 0
8
1 0 0 1 1 0 0 1
8
1 0 0 1 0 1 1 0
8
1 0 0 1 0 1 0 1
8
0 1 0 1 0 1 1 0
8
0 1 0 1 0 1 0 1
8
0 1 0 1 0 1 0 1
8
1 0 0 1 0 1 0 1
8
0 1 0 1 1 0 0 1
8
1 0 0 1 1 0 1 0
8
0 1 1 0 0 1 0 1
8
1 0 0 1 1 0 1 0
8
0 1 0 1 0 1 1 0
8
1 0 0 1 0 1 0 1
8
1 0 1 0 1 0 0 1
8
1 0 1 0 1 0 0 1
4
0.7263857533003568 0.2736142466996431 0.26711494341484043 0.7328850565851596
8
0 1 0 1 0 1 0 1
8
0 1 1 0 0 1 1 0
8
0 1 0 1 0 1 0 1
8
1 0 0 1 0 1 0 1
8
1 0 1 0 0 1 1 0
8
0 1 0 1 0 1 0 1
8
0 1 0 1 1 0 1 0
8
1 0 1 0 0 1 1 0
8
1 0 1 0 0 1 0 1
8
1 0 0 1 1 0 0 1
8
0 1 1 0 0 1 0 1
8
0.7346534295447372 0.2653465704552628 0.42646271323920154 0.5735372867607985 0.93181932057514 0.0681806794248599 0.3305640505820261 0.6694359494179739
8
0 1 0 1 0 1 1 0
8
1 0 1 0 0 1 0 1
8
0 1 0 1 1 0 1 0
8
0 1 1 0 0 1 0 1
8
1 0 1 0 1 0 1 0
4
0 1 1 0
8
0 1 1 0 0 1 1 0
8
0 1 1 0 1 0 0 1
8
1 0 0 1 0 1 0 1
8
1 0 0 1 0 1 1 0
8
1 0 0 1 0 1 1 0
8
0 1 1 0 0 1 1 0
8
0 1 0 1 1 0 1 0
8
1 0 0 1 1 0 0 1
8
1 0 1 0 0 1 1 0
8
0 1 0 1 0 1 0 1
8
0 1 0 1 1 0 0 1
8
1 0 1 0 0 1 1 0
8
1 0 0 1 0 1 0 1
8
0 1 0 1 0 1 0 1
8
0 1 1 0 0 1 0 1
8
0 1 0 1 0 1 0 1
8
1 0 1 0 0 1 1 0
4
0 1 0 1
8
0 1 0 1 1 0 0 1
8
0.19353587499245264 0.8064641250075474 0.5694184620229307 0.4305815379770694 0.7730835126620853 0.22691648733791467 0.04674134966600186 0.9532586503339981
8
0 1 0 1 0 1 1 0
8
1 0 0 1 1 0 0 1
8
1 0 0 1 1 0 0 1
8
0 1 0 1 1 0 0 1
8
0 1 0 1 0 1 0 1
8
0 1 1 0 1 0 1 0
8
1 0 1 0 0 1 0 1
8
1 0 0 1 1 0 0 1
8
1 0 0 1 0 1 1 0
8
1 0 1 0 0 1 0 1
8
1 0 0 1 0 1 1 0
8
1 0 1 0 1 0 1 0
8
0 1 1 0 0 1 0 1
8
0 1 0 1 1 0 0 1
8
0 1 1 0 0 1 0 1
4
1 0 1 0
8
1 0 0 1 1 0 1 0
8
1 0 1 0 0 1 0 1
8
0 1 1 0 0 1 0 1
8
0.4153571449080196 0.5846428550919804 0.7322905889914526 0.2677094110085475 0.9203475225695328 0.07965247743046718 0.1509504355607615 0.8490495644392385
8
0 1 1 0 1 0 1 0
8
0 1 0 1 1 0 0 1
8
0 1 0 1 1 0 0 1
8
1 0 0 1 1 0 0 1
8
0 1 0 1 0 1 0 1
8
0 1 1 0 1 0 0 1
8
0 1 1 0 1 0 1 0
8
0 1 0 1 0 1 0 1
8
0 1 1 0 0 1 0 1
8
0 1 0 1 1 0 0 1
8
0 1 0 1 0 1 1 0
8
0 1 1 0 0 1 1 0
8
0.9530730384367999 0.046926961563200115 0.5195317973411744 0.48046820265882556 0.5230412075158635 0.47695879248413664 0.5685154222614623 0.4314845777385377
4
1 0 0 1
8
1 0 1 0 1 0 1 0
8
0 1 0 1 1 0 1 0
8
0 1 0 1 1 0 1 0
8
0.3832343106261578 0.6167656893738422 0.3528989408683157 0.6471010591316843 0.3928693703318232 0.6071306296681769 0.549024907904896 0.45097509209510395
8
1 0 0 1 1 0 1 0
8
1 0 1 0 0 1 0 1
8
1 0 0 1 0 1 1 0
8
1 0 1 0 1 0 1 0
8
0 1 0 1 0 1 0 1
8
0 1 1 0 1 0 1 0
8
1 0 0 1 0 1 1 0
8
1 0 0 1 1 0 1 0
8
1 0 0 1 0 1 0 1
8
0 1 0 1 1 0 0 1
8
1 0 1 0 0 1 0 1
8
1 0 1 0 0 1 1 0
8
1 0 0 1 1 0 1 0
4
0 1 1 0
8
1 0 0 1 1 0 0 1
8
1 0 0 1 0 1 0 1
8
0 1 0 1 0 1 1 0
8
1 0 1 0 0 1 1 0
8
1 0 1 0 0 1 0 1
8
0 1 1 0 0 1 0 1
8
0 1 1 0 0 1 0 1
8
1 0 1 0 1 0 0 1
8
0 1 1 0 1 0 0 1
8
1 0 0 1 0 1 0 1
8
1 0 0 1 0 1 0 1
8
0 1 0 1 1 0 0 1
8
0 1 0 1 1 0 1 0
8
0.4662673192471082 0.5337326807528918 0.503674798903939 0.49632520109606093 0.5193482633153311 0.4806517366846689 0.5832984871768981 0.4167015128231018
8
1 0 1 0 0 1 0 1
8
1 0 0 1 0 1 0 1
8
1 0 1 0 1 0 1 0
4
0 1 0 1
8
1 0 1 0 0 1 0 1
8
0.2831525089141653 0.7168474910858347 0.6381867133480933 0.3618132866519067 0.5103168984738163 0.4896831015261835 0.3222832825676191 0.6777167174323809
8
0 1 0 1 1 0 1 0
8
0.2180991932894059 0.781900806710594 0.4304152853523516 0.5695847146476484 0.5952764539910157 0.4047235460089844 0.3997730576097265 0.6002269423902735
8
1 0 0 1 1 0 0 1
8
1 0 0 1 0 1 0 1
8
0 1 1 0 1 0 0 1
8
0 1 1 0 1 0 0 1
8
0 1 0 1 1 0 1 0
8
1 0 0 1 1 0 0 1
8
0.4369759182564509 0.5630240817435491 0.6193818209053262 0.38061817909467377 0.6020791027104087 0.39792089728959146 0.21130440990015203 0.7886955900998479
8
0 1 0 1 1 0 0 1
8
1 0 0 1 1 0 0 1
8
1 0 1 0 0 1 1 0
8
0 1 1 0 1 0 1 0
8
0 1 0 1 0 1 0 1
8
0 1 1 0 1 0 1 0
4
1 0 1 0
8
0 1 1 0 1 0 0 1
8
1 0 0 1 1 0 1 0
8
0.051747995697915654 0.9482520043020843 0.3811218741005237 0.6188781258994762 0.6301753679581408 0.3698246320418593 0.5926915376687936 0.40730846233120654
8
0.8881100123034256 0.11188998769657447 0.6564103951291638 0.34358960487083623 0.8425178962845049 0.1574821037154951 0.48170748597889074 0.5182925140211093
8
1 0 0 1 1 0 1 0
8
1 0 1 0 1 0 1 0
8
0 1 1 0 0 1 0 1
8
0 1 0 1 0 1 0 1
8
0 1 1 0 1 0 0 1
8
1 0 1 0 1 0 1 0
8
0 1 0 1 1 0 1 0
8
0 1 1 0 1 0 1 0
8
1 0 1 0 0 1 1 0
8
1 0 0 1 0 1 0 1
8
0.3737362068554585 0.6262637931445414 0.5413181815286915 0.45868181847130846 0.7561619935024618 0.24383800649753823 0.9652467708577762 0.03475322914222378
8
1 0 0 1 0 1 0 1
8
0 1 0 1 0 1 1 0
4
1 0 0 1
8
1 0 0 1 1 0 0 1
8
0 1 1 0 0 1 0 1
8
1 0 0 1 0 1 1 0
8
0 1 1 0 0 1 1 0
8
1 0 1 0 0 1 0 1
8
1 0 1 0 0 1 0 1
8
1 0 0 1 1 0 0 1
8
1 0 0 1 1 0 0 1
8
0 1 0 1 1 0 0 1
8
1 0 1 0 0 1 0 1
8
1 0 0 1 1 0 1 0
8
0 1 0 1 0 1 0 1
8
0 1 0 1 1 0 1 0
8
0 1 0 1 0 1 0 1
8
1 0 1 0 1 0 0 1
8
0 1 0 1 1 0 1 0
8
0 1 0 1 0 1 1 0
4
1 0 1 0
8
1 0 0 1 0 1 1 0
8
1 0 0 1 0 1 0 1
8
1 0 1 0 1 0 1 0
8
0 1 1 0 0 1 1 0
8
1 0 1 0 0 1 1 0
8
0.3413962854955485 0.6586037145044514 0.5038406394010679 0.49615936059893195 0.5657095921019379 0.4342904078980621 0.14967407480943162 0.8503259251905684
8
0.5655411612269451 0.4344588387730549 0.476300732162656 0.523699267837344 0.8366985416707298 0.16330145832927032 0.48389973961313865 0.5161002603868613
8
1 0 1 0 0 1 0 1
8
0 1 0 1 0 1 0 1
8
0 1 0 1 0 1 0 1
8
1 0 1 0 0 1 0 1
8
0.6192548435499019 0.38074515645009815 0.11546769545892323 0.8845323045410767 0.2224532343857661 0.7775467656142339 0.530380965504774 0.4696190344952261
8
1 0 1 0 1 0 1 0
8
1 0 1 0 0 1 0 1
8
1 0 1 0 1 0 0 1
8
1 0 0 1 1 0 0 1
8
1 0 1 0 0 1 0 1
4
1 0 0 1
8
1 0 0 1 0 1 1 0
8
1 0 0 1 0 1 1 0
8
1 0 1 0 0 1 1 0
8
0 1 0 1 0 1 0 1
8
0.5864940043931942 0.41350599560680573 0.1983092064613615 0.8016907935386385 0.37599367264426 0.62400632735574 0.06234535176363551 0.9376546482363645
8
0 1 1 0 1 0 1 0
8
0 1 1 0 1 0 1 0
8
1 0 0 1 0 1 1 0
8
0 1 0 1 0 1 1 0
8
0.8172062385337714 0.18279376146622855 0.9644650389236751 0.03553496107632498 0.5717911820367362 0.42820881796326377 0.648271306192668 0.35172869380733196
8
0 1 0 1 0 1 1 0
8
0 1 1 0 1 0 1 0
8
0 1 1 0 0 1 0 1
8
0.7713601216160847 0.22863987838391525 0.8432659698407193 0.15673403015928067 0.539473167906016 0.460526832093984 0.4803615097741634 0.5196384902258365
8
0 1 1 0 0 1 1 0
8
0 1 1 0 1 0 1 0
8
1 0 0 1 1 0 1 0
4
1 0 1 0
8
0.6397832777069867 0.36021672229301327 0.09609752173930541 0.9039024782606946 0.5721720766515876 0.4278279233484124 0.3805601149813228 0.6194398850186771
8
0 1 1 0 0 1 0 1
8
1 0 0 1 1 0 0 1
8
1 0 1 0 1 0 0 1
8
1 0 0 1 0 1 0 1
8
0 1 0 1 1 0 0 1
8
1 0 1 0 1 0 0 1
8
0 1 0 1 0 1 1 0
8
1 0 1 0 0 1 1 0
8
1 0 0 1 1 0 0 1
8
1 0 0 1 1 0 1 0
8
1 0 1 0 1 0 0 1
8
0 1 1 0 1 0 0 1
8
0.48944896799421345 0.5105510320057864 0.5406864111898125 0.45931358881018747 0.974281616223865 0.02571838377613502 0.6309043542749049 0.3690956457250951
8
0 1 0 1 0 1 1 0
8
0.60920141675848 0.3907985832415199 0.3628169797999377 0.6371830202000622 0.7015249640126261 0.29847503598737385 0.7099372139660284 0.29006278603397156
8
1 0 1 0 0 1 1 0
4
1 0 1 0
4
0.9265514776106948 0.07344852238930526 0.3160498322835621 0.6839501677164379
4
1 0 1 0
4
1 0 0 1
4
1 0 1 0
4
1 0 1 0
4
0 1 0 1
4
1 0 1 0
4
1 0 1 0
4
1 0 1 0
4
0 1 1 0
4
0 1 1 0
4
0 1 1 0
4
1 0 0 1
4
1 0 0 1
4
0.6592643618268261 0.34073563817317387 0.9093957381054598 0.09060426189454018
4
0 1 1 0
4
0 1 1 0
2
1 0
